p cnf 60 46
1 0
-1 -2 3 0
4 0
-4 -5 -6 -7 8 0
-4 -5 -6 -7 9 0
10 0
-10 -11 12 0
13 0
-13 -3 14 0
15 0
-15 -16 17 0
18 0
-18 -17 -19 -20 21 0
-18 -17 -19 -20 22 0
23 0
-23 -24 25 0
26 0
-26 -27 28 0
29 0
-29 -28 -30 -31 32 0
-29 -28 -30 -31 33 0
34 0
-34 -35 36 0
37 0
-37 -36 -38 -39 40 0
-37 -36 -38 -39 41 0
42 0
-42 -43 -40 -44 45 0
-42 -43 -40 -44 46 0
47 0
-47 -48 49 0
50 0
-50 -49 -51 -52 53 0
-50 -49 -51 -52 54 0
7 0
6 0
55 0
56 0
11 0
2 0
57 0
58 0
5 0
53 0
59 0
60 0
